Route #1: 1 23 21 36 37 36 4 23 29 23 2 28 1 
Route #2: 1 7 24 25 24 8 27 9 27 32 23 33 1 
Route #3: 1 19 5 19 26 19 15 19 1 
Route #4: 1 12 17 3 17 30 17 22 10 6 38 18 1 
Route #5: 1 13 38 16 11 40 11 31 10 35 10 39 1 
Cost 569.0
